100 8
285 869
365 764
761 391
898 209
791 458
244 291
617 882
728 203
293 224
453 857
297 132
245 281
317 869
468 153
673 648
419 326
562 90
406 781
309 908
226 347
251 354
767 289
214 613
558 756
619 798
424 822
95 612
455 512
838 419
286 351
780 160
789 223
842 62
272 245
637 297
464 192
451 675
420 556
816 205
819 121
355 376
562 504
416 518
246 366
462 883
545 282
589 870
571 649
725 591
500 766
200 570
799 363
429 783
302 347
437 114
531 524
473 335
764 115
416 35
116 713
471 874
444 762
430 349
163 574
904 58
661 605
242 681
156 762
783 203
899 206
62 622
488 400
616 768
468 101
173 609
361 782
144 610
477 56
652 332
483 143
802 38
101 781
257 340
758 197
520 883
640 259
461 881
218 515
469 429
215 214
496 908
402 866
82 617
582 725
541 515
786 554
528 564
164 494
195 618
307 295
